JulietBench/Juliet_Based_Patch_Bench/FFmpeg/CWE-189-Numeric-Errors/CVE_2014_8546_e7e5114c506957f40aafd794e06de1a7e341e9d5/Resultcinepak_decode_vectors_SnippetNEQ.smt2
; benchmark generated from python API
(set-info :status unknown)
(declare-fun R () (_ BitVec 32))
(declare-fun rdi () (_ BitVec 64))
(assert
 (let (($x570 (= (_ bv0 32) R)))
 (let ((?x6 ((_ extract 31 0) rdi)))
 (let (($x165 (bvsge (_ bv1 32) ?x6)))
 (let ((?x151 (bvsub ?x6 (_ bv4 32))))
 (let (($x297 (bvsge (_ bv1 32) ?x151)))
 (let (($x571 (and $x297 $x165 $x570)))
 (let (($x568 (= (_ bv2 32) R)))
 (let (($x249 (bvslt (_ bv1 32) ?x6)))
 (let (($x15 (bvsge (_ bv2 32) ?x6)))
 (let (($x569 (and $x297 $x15 $x249 $x568)))
 (let (($x566 (= (_ bv6 32) R)))
 (let (($x260 (bvslt (_ bv2 32) ?x6)))
 (let (($x291 (bvsge (_ bv3 32) ?x6)))
 (let (($x567 (and $x297 $x291 $x260 $x249 $x566)))
 (let (($x542 (= (_ bv12 32) R)))
 (let (($x209 (bvslt (_ bv1 32) ?x151)))
 (let (($x560 (bvslt (_ bv2 32) ?x151)))
 (let (($x549 (bvslt (_ bv3 32) ?x151)))
 (let (($x565 (and $x549 $x560 $x209 $x165 $x542)))
 (let (($x295 (bvslt (_ bv3 32) ?x6)))
 (let (($x564 (and $x297 $x295 $x260 $x249 $x542)))
 (let (($x527 (bvsge (_ bv2 32) ?x151)))
 (let (($x563 (and $x527 $x209 $x295 $x260 $x249 $x542)))
 (let (($x553 (bvsge (_ bv3 32) ?x151)))
 (let (($x562 (and $x553 $x560 $x209 $x295 $x260 $x249 $x542)))
 (let (($x561 (and $x549 $x560 $x209 $x295 $x260 $x249 $x542)))
 (let (($x572 (or $x561 $x562 $x563 $x564 $x565 $x567 $x569 $x571)))
 (let (($x575 (not $x572)))
 (let (($x11 (bvule ?x6 (_ bv1 32))))
 (let (($x236 (bvugt ?x151 (_ bv1 32))))
 (let (($x348 (bvugt ?x151 (_ bv2 32))))
 (let (($x182 (bvugt ?x151 (_ bv3 32))))
 (let (($x534 (and $x182 $x348 $x236 $x11 $x542)))
 (let (($x45 (bvugt ?x6 (_ bv1 32))))
 (let (($x138 (bvugt ?x6 (_ bv2 32))))
 (let (($x148 (bvugt ?x6 (_ bv3 32))))
 (let (($x149 (bvule ?x151 (_ bv1 32))))
 (let (($x537 (and $x149 $x148 $x138 $x45 $x542)))
 (let (($x56 (bvule ?x6 (_ bv2 32))))
 (let (($x546 (and $x182 $x348 $x236 $x56 $x45 $x542)))
 (let (($x316 (bvule ?x151 (_ bv2 32))))
 (let (($x550 (and $x316 $x236 $x148 $x138 $x45 $x542)))
 (let (($x51 (bvule ?x6 (_ bv3 32))))
 (let (($x293 (and $x182 $x348 $x236 $x51 $x138 $x45 $x542)))
 (let (($x53 (bvule ?x151 (_ bv3 32))))
 (let (($x540 (and $x53 $x348 $x236 $x148 $x138 $x45 $x542)))
 (let (($x535 (and $x182 $x348 $x236 $x148 $x138 $x45 $x542)))
 (let (($x530 (or $x535 $x540 $x293 $x550 $x546 $x537 $x534)))
 (let (($x574 (not $x530)))
 (let (($x576 (and $x574 $x575)))
 (let (($x573 (and $x530 $x572)))
 (let (($x577 (or $x573 $x576)))
 (not $x577))))))))))))))))))))))))))))))))))))))))))))))))))))))
(check-sat)
